\ENCODING=ISO-8859-1
\Problem name: IloCplex

Maximize
 obj: x1 + x2 + x3 + x4 + x5 + x6 + x7 + x8 + x9 + x10 - 8
Subject To
 c1:  x1 + x2 + x3 + x4 + x5 >= 3
 c2:  x6 + x7 + x8 + x9 + x10 >= 3
 c3:  <= 4
 c4:  <= 5
 c5:  <= 5
 c6:  <= 5
 c7:  <= 1
 c8:  <= 4
 c9:  <= 5
 c10: <= 7
 c11: <= 7
 c12: <= 7
Bounds
 0 <= x1 <= 1
 0 <= x2 <= 1
 0 <= x3 <= 1
 0 <= x4 <= 1
 0 <= x5 <= 1
 0 <= x6 <= 1
 0 <= x7 <= 1
 0 <= x8 <= 1
 0 <= x9 <= 1
 0 <= x10 <= 1
Binaries
 x1  x2  x3  x4  x5  x6  x7  x8  x9  x10 
End
